NAME: test1954
TYPE: TSP
DIMENSION: 11
EDGE_WEIGHT_TYPE: EUC_2D
NODE_COORD_SECTION
1 17.550537540302493 51.637569734447474
2 6.127347098552138 23.747482422584344
3 24.979410818110903 21.231006401291953
4 66.97821083381677 90.92373843087749
5 52.94878501151964 26.757123555561822
6 11.967168019416007 11.313468091465085
7 91.92743066755934 19.62750179617241
8 57.33795910555922 10.778234035939882
9 47.80687313472406 98.14338631118709
10 38.60996481131882 44.44364454375612
11 34.31505556083327 33.110226789555306
EOF
